data;

param n:=23;
param p:=3;
param r:=[1] 0 [2] 2 [3] 3 [4] 8 [5] 5 [6] 5 [7] 10 [8] 9 [9] 10 [10] 2 [11] 15 [12] 13 [13] 16 [14] 19 [15] 42 [16] 34 [17] 46 [18] 8 [19] 29 [20] 34 [21] 21 [22] 55 [23] 34 ;
param w:=[1] 82 [2] 8 [3] 15 [4] 7 [5] 28 [6] 97 [7] 91 [8] 18 [9] 37 [10] 64 [11] 93 [12] 71 [13] 65 [14] 32 [15] 8 [16] 14 [17] 48 [18] 38 [19] 48 [20] 84 [21] 44 [22] 31 [23] 7 ;

end;
